26888169979622 -1 0
805795453303 2 0
309590270565133 3 -2 0
46468479946289 4 0
2058088794700296498 -5 0
448983773577593 -5 0
1088995942276418753 -4 0
9842175391837 6 0
227952106101684 -5 0
430985191501232 -2 0
80280611150398 -3 0
2413232270093958135 -4 0
102399649950244 2 0
1054317431904761211 -4 0
13368991792056 -5 0
46861882169649 -4 0
191188537418704 3 0
743407247195892 -5 0
10609074654004 -5 0
270889947715446 5 0
352225972353435 4 0
408943444421653 7 0
98338394547777 3 0
484525582639089 -3 0
17430651195907 -4 0
478908982367784 4 0
140403779396661 -4 0
16652974846149 5 0
605840799894589 -3 0
2641181035645 4 0
4082509257298 3 0
7538103834106709 -3 0
546961581518652 -3 0
9119376164256 -8 0
567859526449 -1 0
1182540105013336225 -5 0
10219333159708 2 0
15616315237062 4 0
1436366450347171623 2 3 0
476861494712458 2 0
280856918150482 -4 0
627418967300984 4 0
